[on. 05. april 11:03:05 +0200 2023]  ./input/alternate_g_np_100/100-4-4.gcc
Set parameter Username
Academic license - for non-commercial use only - expires 2024-03-28
Set parameter TimeLimit to value 1800
Set parameter PreCrush to value 1
Set parameter LazyConstraints to value 1
Gurobi Optimizer version 10.0.1 build v10.0.1rc0 (linux64)

CPU model: AMD Ryzen 9 5950X 16-Core Processor, instruction set [SSE2|AVX|AVX2]
Thread count: 16 physical cores, 32 logical processors, using up to 32 threads

Optimize a model with 108 rows, 900 columns and 2500 nonzeros
Model fingerprint: 0x748d4236
Variable types: 0 continuous, 900 integer (900 binary)
Coefficient statistics:
  Matrix range     [1e+00, 1e+00]
  Objective range  [1e+00, 1e+02]
  Bounds range     [1e+00, 1e+00]
  RHS range        [1e+00, 1e+00]
Presolve added 7 rows and 7 columns
Presolve time: 0.00s
Presolved: 115 rows, 907 columns, 1821 nonzeros
Variable types: 0 continuous, 907 integer (900 binary)

Root relaxation: objective 4.883000e+03, 1 iterations, 0.00 seconds (0.00 work units)

    Nodes    |    Current Node    |     Objective Bounds      |     Work
 Expl Unexpl |  Obj  Depth IntInf | Incumbent    BestBd   Gap | It/Node Time

     0     0 4883.00000    0    -          - 4883.00000      -     -    0s
     0     0 4883.00000    0   18          - 4883.00000      -     -    0s
     0     0 4883.00000    0    -          - 4883.00000      -     -    0s
     0     0 4883.00000    0    -          - 4883.00000      -     -    0s
     0     0 4883.00000    0   11          - 4883.00000      -     -    0s
*    0     0               0    4883.0000000 4883.00000  0.00%     -    0s

Cutting planes:
  User: 3
  Gomory: 3
  MIR: 2
  GUB cover: 5
  Relax-and-lift: 4
  Lazy constraints: 14

Explored 1 nodes (27 simplex iterations) in 0.02 seconds (0.01 work units)
Thread count was 32 (of 32 available processors)

Solution count 1: 4883 

Optimal solution found (tolerance 1.00e-04)
Best objective 4.883000000000e+03, best bound 4.883000000000e+03, gap 0.0000%

User-callback calls 141, time in user-callback 0.00 sec
Minimal separator inequalities added: 20
Indegree inequalities added: 1
Passed solution check
[on. 05. april 11:03:05 +0200 2023]  done

